p edge 250 3097
e 1 19
e 1 41
e 1 44
e 1 77
e 1 99
e 1 103
e 1 141
e 1 151
e 1 152
e 1 161
e 1 162
e 1 173
e 1 178
e 1 185
e 1 186
e 1 188
e 1 217
e 1 223
e 1 226
e 1 233
e 2 11
e 2 13
e 2 35
e 2 52
e 2 74
e 2 88
e 2 89
e 2 95
e 2 103
e 2 107
e 2 114
e 2 121
e 2 141
e 2 156
e 2 165
e 2 172
e 2 173
e 2 180
e 2 184
e 2 187
e 2 193
e 2 200
e 2 213
e 2 227
e 2 239
e 2 244
e 2 246
e 3 4
e 3 14
e 3 18
e 3 26
e 3 61
e 3 64
e 3 76
e 3 90
e 3 93
e 3 100
e 3 109
e 3 112
e 3 120
e 3 126
e 3 128
e 3 140
e 3 141
e 3 171
e 3 172
e 3 192
e 3 197
e 3 201
e 3 211
e 3 219
e 3 227
e 3 237
e 3 239
e 3 244
e 4 6
e 4 7
e 4 13
e 4 14
e 4 47
e 4 55
e 4 76
e 4 88
e 4 112
e 4 122
e 4 132
e 4 177
e 4 182
e 4 219
e 4 225
e 4 226
e 4 238
e 4 241
e 5 7
e 5 19
e 5 21
e 5 22
e 5 25
e 5 38
e 5 43
e 5 66
e 5 94
e 5 104
e 5 105
e 5 106
e 5 152
e 5 153
e 5 190
e 5 207
e 5 220
e 5 228
e 6 16
e 6 29
e 6 36
e 6 43
e 6 51
e 6 58
e 6 60
e 6 72
e 6 87
e 6 89
e 6 113
e 6 114
e 6 117
e 6 138
e 6 141
e 6 146
e 6 181
e 6 194
e 6 201
e 6 215
e 6 224
e 6 240
e 7 13
e 7 27
e 7 28
e 7 33
e 7 52
e 7 73
e 7 85
e 7 87
e 7 110
e 7 114
e 7 117
e 7 163
e 7 171
e 7 194
e 7 210
e 7 225
e 7 226
e 7 230
e 7 235
e 7 237
e 7 243
e 7 246
e 7 250
e 8 15
e 8 20
e 8 27
e 8 46
e 8 69
e 8 71
e 8 88
e 8 91
e 8 96
e 8 98
e 8 120
e 8 122
e 8 133
e 8 134
e 8 138
e 8 154
e 8 183
e 8 189
e 8 192
e 8 193
e 8 196
e 8 199
e 8 208
e 8 210
e 9 19
e 9 20
e 9 37
e 9 41
e 9 54
e 9 66
e 9 74
e 9 88
e 9 91
e 9 93
e 9 122
e 9 143
e 9 147
e 9 150
e 9 161
e 9 164
e 9 169
e 9 172
e 9 194
e 9 200
e 9 208
e 9 214
e 9 236
e 9 239
e 9 243
e 10 22
e 10 35
e 10 40
e 10 43
e 10 51
e 10 65
e 10 87
e 10 93
e 10 109
e 10 111
e 10 119
e 10 123
e 10 130
e 10 142
e 10 150
e 10 155
e 10 175
e 10 176
e 10 179
e 10 192
e 10 197
e 10 202
e 10 230
e 10 236
e 10 237
e 11 34
e 11 49
e 11 66
e 11 67
e 11 80
e 11 107
e 11 120
e 11 121
e 11 128
e 11 133
e 11 135
e 11 147
e 11 149
e 11 154
e 11 155
e 11 159
e 11 176
e 11 185
e 11 197
e 11 200
e 11 204
e 11 228
e 11 234
e 11 240
e 11 244
e 12 13
e 12 21
e 12 31
e 12 32
e 12 35
e 12 46
e 12 56
e 12 58
e 12 60
e 12 76
e 12 94
e 12 108
e 12 114
e 12 128
e 12 129
e 12 135
e 12 146
e 12 157
e 12 169
e 12 180
e 12 182
e 12 221
e 12 227
e 12 234
e 13 14
e 13 16
e 13 17
e 13 22
e 13 47
e 13 52
e 13 58
e 13 70
e 13 77
e 13 82
e 13 83
e 13 88
e 13 94
e 13 99
e 13 102
e 13 105
e 13 111
e 13 112
e 13 114
e 13 118
e 13 123
e 13 135
e 13 145
e 13 147
e 13 149
e 13 153
e 13 166
e 13 209
e 13 210
e 13 214
e 13 216
e 13 224
e 13 229
e 13 234
e 14 24
e 14 50
e 14 57
e 14 85
e 14 103
e 14 107
e 14 109
e 14 121
e 14 130
e 14 160
e 14 165
e 14 171
e 14 173
e 14 176
e 14 180
e 14 184
e 14 186
e 14 195
e 14 197
e 14 203
e 14 208
e 14 210
e 14 223
e 14 224
e 14 226
e 14 236
e 14 240
e 14 244
e 14 249
e 15 20
e 15 27
e 15 33
e 15 48
e 15 49
e 15 50
e 15 55
e 15 59
e 15 64
e 15 77
e 15 92
e 15 97
e 15 111
e 15 115
e 15 126
e 15 129
e 15 134
e 15 139
e 15 158
e 15 163
e 15 167
e 15 168
e 15 171
e 15 177
e 15 186
e 15 188
e 15 202
e 15 214
e 15 216
e 15 224
e 15 232
e 16 28
e 16 49
e 16 68
e 16 88
e 16 96
e 16 105
e 16 119
e 16 127
e 16 155
e 16 156
e 16 168
e 16 184
e 16 202
e 16 208
e 16 210
e 16 223
e 16 232
e 16 239
e 17 30
e 17 40
e 17 44
e 17 48
e 17 56
e 17 59
e 17 70
e 17 73
e 17 79
e 17 93
e 17 130
e 17 136
e 17 156
e 17 159
e 17 175
e 17 178
e 17 191
e 17 200
e 17 203
e 17 204
e 17 224
e 17 233
e 17 241
e 18 26
e 18 31
e 18 49
e 18 51
e 18 58
e 18 59
e 18 65
e 18 80
e 18 93
e 18 99
e 18 104
e 18 126
e 18 138
e 18 141
e 18 157
e 18 159
e 18 181
e 18 205
e 18 215
e 18 220
e 18 223
e 18 236
e 18 248
e 19 30
e 19 35
e 19 43
e 19 55
e 19 87
e 19 92
e 19 102
e 19 109
e 19 113
e 19 121
e 19 130
e 19 137
e 19 146
e 19 154
e 19 158
e 19 159
e 19 170
e 19 173
e 19 182
e 19 203
e 19 204
e 19 206
e 19 211
e 19 214
e 19 241
e 19 246
e 20 29
e 20 36
e 20 54
e 20 59
e 20 60
e 20 84
e 20 109
e 20 111
e 20 122
e 20 123
e 20 185
e 20 218
e 20 220
e 20 221
e 20 228
e 20 240
e 20 250
e 21 45
e 21 57
e 21 72
e 21 78
e 21 80
e 21 90
e 21 92
e 21 94
e 21 97
e 21 107
e 21 115
e 21 116
e 21 121
e 21 125
e 21 132
e 21 141
e 21 156
e 21 167
e 21 171
e 21 172
e 21 178
e 21 179
e 21 199
e 21 208
e 21 210
e 21 213
e 21 222
e 21 240
e 21 248
e 21 249
e 22 24
e 22 53
e 22 58
e 22 71
e 22 78
e 22 83
e 22 88
e 22 91
e 22 95
e 22 117
e 22 124
e 22 125
e 22 148
e 22 170
e 22 178
e 22 180
e 22 211
e 22 232
e 22 243
e 22 248
e 23 36
e 23 52
e 23 73
e 23 75
e 23 84
e 23 88
e 23 91
e 23 102
e 23 106
e 23 112
e 23 121
e 23 136
e 23 140
e 23 164
e 23 172
e 23 194
e 23 200
e 23 201
e 23 206
e 23 207
e 23 215
e 23 235
e 23 237
e 23 239
e 24 33
e 24 48
e 24 60
e 24 63
e 24 88
e 24 92
e 24 98
e 24 108
e 24 122
e 24 129
e 24 137
e 24 143
e 24 145
e 24 151
e 24 156
e 24 166
e 24 172
e 24 188
e 24 202
e 24 204
e 24 205
e 24 219
e 24 242
e 24 243
e 25 43
e 25 61
e 25 67
e 25 69
e 25 70
e 25 108
e 25 142
e 25 143
e 25 152
e 25 178
e 25 198
e 25 200
e 25 208
e 25 212
e 25 213
e 26 27
e 26 45
e 26 51
e 26 55
e 26 56
e 26 60
e 26 99
e 26 102
e 26 111
e 26 113
e 26 118
e 26 127
e 26 132
e 26 151
e 26 152
e 26 170
e 26 172
e 26 173
e 26 209
e 26 215
e 26 218
e 26 222
e 26 242
e 26 243
e 27 39
e 27 51
e 27 56
e 27 78
e 27 87
e 27 96
e 27 101
e 27 103
e 27 104
e 27 106
e 27 112
e 27 118
e 27 123
e 27 129
e 27 130
e 27 131
e 27 133
e 27 146
e 27 150
e 27 155
e 27 157
e 27 161
e 27 164
e 27 171
e 27 172
e 27 181
e 27 193
e 27 202
e 27 208
e 27 210
e 27 216
e 27 224
e 27 237
e 27 248
e 27 249
e 28 39
e 28 52
e 28 61
e 28 64
e 28 66
e 28 74
e 28 75
e 28 79
e 28 80
e 28 82
e 28 105
e 28 109
e 28 125
e 28 150
e 28 176
e 28 178
e 28 196
e 28 199
e 28 209
e 28 224
e 28 225
e 28 226
e 28 233
e 28 239
e 28 244
e 29 33
e 29 58
e 29 62
e 29 87
e 29 102
e 29 105
e 29 117
e 29 127
e 29 138
e 29 151
e 29 159
e 29 164
e 29 188
e 29 220
e 30 31
e 30 40
e 30 45
e 30 84
e 30 94
e 30 98
e 30 107
e 30 117
e 30 133
e 30 136
e 30 139
e 30 143
e 30 151
e 30 157
e 30 189
e 30 209
e 30 240
e 31 38
e 31 55
e 31 62
e 31 83
e 31 92
e 31 103
e 31 112
e 31 122
e 31 133
e 31 138
e 31 140
e 31 154
e 31 178
e 31 186
e 31 207
e 31 214
e 31 222
e 31 238
e 31 243
e 31 250
e 32 44
e 32 58
e 32 72
e 32 73
e 32 95
e 32 100
e 32 116
e 32 117
e 32 127
e 32 131
e 32 141
e 32 152
e 32 160
e 32 173
e 32 185
e 32 201
e 32 214
e 32 215
e 32 226
e 32 231
e 32 238
e 32 241
e 33 39
e 33 47
e 33 48
e 33 64
e 33 74
e 33 78
e 33 87
e 33 88
e 33 90
e 33 91
e 33 96
e 33 101
e 33 107
e 33 108
e 33 114
e 33 149
e 33 155
e 33 165
e 33 200
e 33 215
e 33 226
e 33 233
e 33 235
e 33 243
e 33 250
e 34 43
e 34 63
e 34 66
e 34 81
e 34 102
e 34 126
e 34 130
e 34 157
e 34 161
e 34 191
e 34 194
e 34 207
e 34 230
e 34 237
e 34 239
e 35 36
e 35 40
e 35 58
e 35 62
e 35 67
e 35 85
e 35 102
e 35 121
e 35 137
e 35 156
e 35 187
e 35 196
e 35 209
e 35 210
e 35 213
e 35 228
e 35 234
e 36 39
e 36 46
e 36 99
e 36 108
e 36 120
e 36 129
e 36 139
e 36 148
e 36 154
e 36 163
e 36 166
e 36 175
e 36 192
e 36 202
e 36 210
e 36 211
e 36 232
e 36 237
e 36 248
e 37 43
e 37 44
e 37 56
e 37 68
e 37 78
e 37 85
e 37 88
e 37 92
e 37 93
e 37 102
e 37 106
e 37 136
e 37 138
e 37 141
e 37 142
e 37 144
e 37 184
e 37 192
e 37 211
e 37 218
e 37 228
e 38 57
e 38 70
e 38 81
e 38 89
e 38 94
e 38 118
e 38 135
e 38 143
e 38 196
e 38 197
e 38 204
e 38 206
e 38 207
e 38 217
e 38 223
e 38 229
e 38 238
e 38 246
e 39 70
e 39 90
e 39 107
e 39 113
e 39 125
e 39 142
e 39 150
e 39 151
e 39 156
e 39 164
e 39 188
e 39 190
e 39 203
e 39 204
e 39 209
e 39 246
e 40 57
e 40 59
e 40 62
e 40 83
e 40 85
e 40 98
e 40 105
e 40 113
e 40 115
e 40 118
e 40 164
e 40 177
e 40 189
e 40 197
e 40 215
e 40 224
e 40 231
e 40 232
e 40 243
e 41 49
e 41 57
e 41 59
e 41 69
e 41 75
e 41 87
e 41 96
e 41 122
e 41 129
e 41 131
e 41 135
e 41 144
e 41 147
e 41 152
e 41 173
e 41 180
e 41 191
e 41 196
e 41 198
e 41 205
e 41 211
e 41 220
e 41 230
e 41 232
e 41 248
e 42 48
e 42 53
e 42 64
e 42 96
e 42 101
e 42 115
e 42 117
e 42 142
e 42 144
e 42 146
e 42 156
e 42 162
e 42 177
e 42 201
e 42 204
e 42 205
e 42 207
e 42 217
e 42 230
e 42 233
e 43 74
e 43 77
e 43 110
e 43 115
e 43 116
e 43 121
e 43 136
e 43 139
e 43 141
e 43 171
e 43 198
e 43 200
e 43 210
e 43 218
e 43 222
e 43 245
e 43 249
e 43 250
e 44 45
e 44 46
e 44 71
e 44 79
e 44 81
e 44 84
e 44 89
e 44 111
e 44 115
e 44 120
e 44 126
e 44 142
e 44 146
e 44 163
e 44 172
e 44 178
e 44 188
e 44 194
e 44 206
e 44 216
e 44 226
e 44 231
e 44 238
e 45 70
e 45 90
e 45 96
e 45 102
e 45 110
e 45 120
e 45 149
e 45 151
e 45 153
e 45 159
e 45 161
e 45 163
e 45 165
e 45 169
e 45 176
e 45 185
e 45 192
e 45 196
e 45 198
e 45 199
e 45 226
e 45 239
e 45 244
e 46 49
e 46 55
e 46 70
e 46 79
e 46 99
e 46 105
e 46 106
e 46 119
e 46 134
e 46 146
e 46 157
e 46 180
e 46 183
e 46 186
e 46 213
e 46 224
e 46 239
e 46 245
e 46 247
e 47 60
e 47 81
e 47 95
e 47 105
e 47 106
e 47 117
e 47 126
e 47 135
e 47 144
e 47 152
e 47 154
e 47 157
e 47 159
e 47 162
e 47 164
e 47 173
e 47 184
e 47 193
e 47 206
e 47 221
e 47 232
e 47 233
e 47 240
e 47 242
e 48 50
e 48 57
e 48 59
e 48 70
e 48 84
e 48 86
e 48 87
e 48 91
e 48 99
e 48 101
e 48 114
e 48 119
e 48 127
e 48 135
e 48 136
e 48 148
e 48 154
e 48 161
e 48 166
e 48 205
e 48 221
e 48 228
e 48 250
e 49 65
e 49 80
e 49 88
e 49 92
e 49 93
e 49 115
e 49 126
e 49 146
e 49 147
e 49 160
e 49 163
e 49 182
e 49 198
e 49 203
e 49 209
e 49 216
e 49 223
e 49 238
e 50 85
e 50 90
e 50 93
e 50 111
e 50 118
e 50 123
e 50 129
e 50 130
e 50 167
e 50 176
e 50 180
e 50 185
e 50 205
e 50 206
e 50 212
e 50 216
e 50 222
e 50 225
e 50 226
e 50 250
e 51 54
e 51 59
e 51 62
e 51 66
e 51 74
e 51 100
e 51 125
e 51 134
e 51 151
e 51 164
e 51 174
e 51 176
e 51 178
e 51 194
e 51 220
e 51 226
e 51 237
e 51 240
e 52 55
e 52 65
e 52 70
e 52 74
e 52 81
e 52 110
e 52 111
e 52 119
e 52 150
e 52 154
e 52 186
e 52 189
e 52 198
e 52 217
e 53 59
e 53 62
e 53 76
e 53 90
e 53 120
e 53 123
e 53 138
e 53 143
e 53 168
e 53 179
e 53 186
e 53 187
e 53 188
e 53 205
e 53 207
e 53 225
e 53 227
e 53 245
e 54 88
e 54 90
e 54 98
e 54 116
e 54 122
e 54 124
e 54 147
e 54 153
e 54 175
e 54 177
e 54 188
e 54 191
e 54 192
e 54 204
e 54 226
e 54 246
e 55 59
e 55 66
e 55 67
e 55 82
e 55 104
e 55 106
e 55 109
e 55 114
e 55 126
e 55 132
e 55 147
e 55 159
e 55 166
e 55 182
e 55 183
e 55 184
e 55 191
e 55 192
e 55 196
e 55 216
e 55 237
e 55 247
e 55 249
e 56 60
e 56 77
e 56 80
e 56 81
e 56 96
e 56 100
e 56 106
e 56 108
e 56 113
e 56 116
e 56 119
e 56 128
e 56 129
e 56 179
e 56 191
e 56 197
e 56 199
e 56 200
e 56 209
e 56 217
e 56 218
e 56 222
e 56 232
e 57 63
e 57 65
e 57 76
e 57 82
e 57 93
e 57 100
e 57 113
e 57 114
e 57 118
e 57 121
e 57 145
e 57 151
e 57 152
e 57 165
e 57 171
e 57 172
e 57 182
e 57 192
e 57 206
e 58 63
e 58 70
e 58 73
e 58 84
e 58 91
e 58 114
e 58 127
e 58 129
e 58 148
e 58 149
e 58 180
e 58 186
e 58 189
e 58 192
e 58 211
e 58 222
e 58 223
e 58 232
e 59 68
e 59 75
e 59 79
e 59 83
e 59 90
e 59 91
e 59 95
e 59 120
e 59 135
e 59 176
e 59 188
e 59 198
e 59 206
e 59 215
e 59 230
e 59 231
e 60 61
e 60 65
e 60 71
e 60 77
e 60 78
e 60 94
e 60 107
e 60 110
e 60 125
e 60 132
e 60 153
e 60 167
e 60 168
e 60 170
e 60 180
e 60 208
e 60 209
e 60 216
e 60 227
e 60 238
e 60 247
e 60 250
e 61 69
e 61 73
e 61 84
e 61 92
e 61 94
e 61 97
e 61 120
e 61 122
e 61 123
e 61 143
e 61 144
e 61 150
e 61 166
e 61 182
e 61 193
e 61 201
e 61 204
e 61 208
e 61 223
e 61 247
e 62 66
e 62 71
e 62 81
e 62 98
e 62 111
e 62 113
e 62 165
e 62 173
e 62 178
e 62 180
e 62 184
e 62 185
e 62 214
e 62 228
e 62 237
e 62 240
e 62 246
e 62 250
e 63 73
e 63 96
e 63 106
e 63 122
e 63 125
e 63 135
e 63 145
e 63 168
e 63 176
e 63 185
e 63 191
e 63 207
e 63 218
e 63 226
e 63 236
e 64 79
e 64 87
e 64 90
e 64 99
e 64 122
e 64 133
e 64 142
e 64 154
e 64 160
e 64 164
e 64 176
e 64 183
e 64 188
e 64 191
e 64 199
e 64 209
e 64 221
e 64 223
e 64 225
e 64 235
e 64 243
e 65 67
e 65 81
e 65 85
e 65 99
e 65 107
e 65 115
e 65 130
e 65 147
e 65 155
e 65 179
e 65 190
e 65 201
e 65 203
e 65 207
e 65 238
e 65 245
e 66 86
e 66 99
e 66 107
e 66 116
e 66 122
e 66 130
e 66 144
e 66 151
e 66 158
e 66 160
e 66 161
e 66 165
e 66 211
e 66 213
e 66 215
e 66 217
e 66 222
e 67 73
e 67 88
e 67 120
e 67 142
e 67 159
e 67 173
e 67 177
e 67 189
e 67 193
e 67 225
e 67 226
e 67 238
e 67 243
e 68 82
e 68 84
e 68 92
e 68 93
e 68 94
e 68 102
e 68 120
e 68 132
e 68 136
e 68 144
e 68 160
e 68 183
e 68 214
e 68 222
e 68 232
e 68 240
e 68 249
e 69 70
e 69 74
e 69 77
e 69 80
e 69 99
e 69 100
e 69 123
e 69 130
e 69 144
e 69 177
e 69 189
e 69 198
e 69 217
e 69 219
e 69 230
e 69 235
e 69 236
e 69 243
e 69 244
e 69 250
e 70 81
e 70 90
e 70 91
e 70 92
e 70 102
e 70 118
e 70 126
e 70 140
e 70 150
e 70 153
e 70 157
e 70 160
e 70 196
e 70 205
e 70 207
e 70 221
e 70 227
e 71 72
e 71 119
e 71 147
e 71 171
e 71 182
e 71 183
e 71 184
e 71 223
e 71 249
e 72 82
e 72 103
e 72 124
e 72 138
e 72 152
e 72 170
e 72 216
e 72 219
e 72 224
e 72 227
e 72 230
e 72 232
e 73 100
e 73 115
e 73 119
e 73 120
e 73 134
e 73 163
e 73 186
e 73 191
e 73 192
e 73 195
e 73 203
e 73 205
e 73 207
e 73 230
e 73 239
e 73 250
e 74 79
e 74 87
e 74 91
e 74 94
e 74 96
e 74 113
e 74 119
e 74 129
e 74 143
e 74 146
e 74 148
e 74 157
e 74 166
e 74 172
e 74 207
e 74 217
e 74 232
e 75 81
e 75 91
e 75 95
e 75 116
e 75 136
e 75 142
e 75 168
e 75 173
e 75 181
e 75 194
e 75 209
e 75 216
e 75 232
e 75 243
e 76 78
e 76 79
e 76 94
e 76 95
e 76 98
e 76 100
e 76 113
e 76 115
e 76 127
e 76 137
e 76 147
e 76 153
e 76 157
e 76 161
e 76 170
e 76 195
e 76 196
e 76 204
e 76 213
e 76 214
e 76 220
e 76 230
e 77 93
e 77 94
e 77 107
e 77 108
e 77 115
e 77 124
e 77 135
e 77 158
e 77 186
e 77 192
e 77 198
e 77 228
e 77 246
e 77 247
e 78 83
e 78 101
e 78 127
e 78 129
e 78 144
e 78 149
e 78 152
e 78 157
e 78 161
e 78 176
e 78 177
e 78 179
e 78 193
e 78 195
e 78 201
e 78 223
e 78 237
e 78 241
e 78 245
e 79 86
e 79 97
e 79 120
e 79 131
e 79 150
e 79 157
e 79 161
e 79 166
e 79 175
e 79 177
e 79 186
e 79 196
e 79 197
e 79 209
e 79 216
e 79 226
e 80 94
e 80 95
e 80 96
e 80 104
e 80 114
e 80 127
e 80 134
e 80 145
e 80 148
e 80 169
e 80 180
e 80 182
e 80 185
e 80 190
e 80 193
e 80 195
e 80 208
e 80 218
e 80 220
e 80 228
e 80 244
e 80 249
e 81 108
e 81 110
e 81 113
e 81 118
e 81 125
e 81 131
e 81 134
e 81 136
e 81 150
e 81 155
e 81 163
e 81 173
e 81 180
e 81 205
e 81 212
e 81 214
e 81 219
e 81 226
e 81 232
e 81 236
e 81 239
e 81 243
e 82 89
e 82 97
e 82 108
e 82 115
e 82 140
e 82 164
e 82 180
e 82 182
e 82 184
e 82 186
e 82 196
e 82 215
e 82 218
e 82 243
e 83 88
e 83 94
e 83 97
e 83 109
e 83 114
e 83 129
e 83 130
e 83 132
e 83 146
e 83 158
e 83 186
e 83 212
e 83 218
e 83 222
e 83 231
e 83 244
e 84 96
e 84 97
e 84 100
e 84 102
e 84 113
e 84 123
e 84 126
e 84 143
e 84 167
e 84 173
e 84 239
e 84 245
e 84 248
e 85 89
e 85 92
e 85 99
e 85 103
e 85 128
e 85 135
e 85 144
e 85 151
e 85 156
e 85 164
e 85 165
e 85 188
e 85 196
e 85 202
e 85 206
e 85 208
e 85 210
e 85 235
e 85 239
e 85 240
e 86 87
e 86 103
e 86 131
e 86 135
e 86 147
e 86 154
e 86 155
e 86 171
e 86 177
e 86 197
e 86 206
e 86 214
e 86 223
e 86 237
e 86 247
e 87 99
e 87 104
e 87 110
e 87 115
e 87 124
e 87 138
e 87 143
e 87 154
e 87 166
e 87 167
e 87 170
e 87 173
e 87 182
e 87 193
e 87 200
e 87 207
e 87 209
e 87 227
e 87 246
e 87 248
e 88 106
e 88 109
e 88 123
e 88 126
e 88 129
e 88 145
e 88 151
e 88 157
e 88 172
e 88 178
e 88 202
e 88 209
e 88 214
e 88 215
e 88 225
e 88 227
e 88 247
e 89 90
e 89 136
e 89 141
e 89 146
e 89 160
e 89 175
e 89 178
e 89 195
e 89 199
e 89 213
e 89 220
e 89 237
e 90 94
e 90 102
e 90 113
e 90 125
e 90 130
e 90 139
e 90 144
e 90 145
e 90 158
e 90 159
e 90 207
e 90 240
e 90 246
e 91 118
e 91 121
e 91 127
e 91 138
e 91 141
e 91 146
e 91 152
e 91 155
e 91 158
e 91 169
e 91 173
e 91 176
e 91 178
e 91 183
e 91 190
e 91 191
e 91 196
e 91 199
e 91 218
e 91 224
e 91 235
e 91 244
e 91 249
e 92 94
e 92 96
e 92 109
e 92 110
e 92 125
e 92 131
e 92 134
e 92 137
e 92 152
e 92 157
e 92 167
e 92 169
e 92 177
e 92 183
e 92 184
e 92 187
e 92 206
e 92 212
e 92 213
e 92 228
e 92 245
e 92 247
e 92 248
e 93 95
e 93 97
e 93 103
e 93 106
e 93 151
e 93 166
e 93 175
e 93 184
e 93 186
e 93 198
e 93 206
e 93 207
e 93 211
e 93 214
e 93 220
e 93 235
e 93 239
e 93 242
e 93 246
e 93 250
e 94 102
e 94 109
e 94 112
e 94 119
e 94 130
e 94 148
e 94 158
e 94 159
e 94 175
e 94 218
e 94 219
e 94 227
e 94 231
e 94 248
e 95 108
e 95 123
e 95 124
e 95 152
e 95 158
e 95 173
e 95 184
e 95 186
e 95 188
e 95 189
e 95 193
e 95 194
e 95 195
e 95 200
e 95 205
e 95 206
e 95 218
e 96 116
e 96 122
e 96 124
e 96 136
e 96 139
e 96 143
e 96 157
e 96 159
e 96 167
e 96 184
e 96 187
e 96 194
e 96 208
e 96 212
e 96 225
e 96 231
e 96 235
e 96 240
e 96 243
e 96 247
e 97 99
e 97 103
e 97 136
e 97 145
e 97 153
e 97 157
e 97 173
e 97 177
e 97 182
e 97 190
e 97 192
e 97 212
e 97 220
e 97 249
e 98 107
e 98 118
e 98 124
e 98 127
e 98 141
e 98 144
e 98 150
e 98 152
e 98 157
e 98 173
e 98 184
e 98 191
e 98 192
e 98 209
e 98 227
e 98 238
e 99 107
e 99 111
e 99 116
e 99 132
e 99 137
e 99 142
e 99 147
e 99 170
e 99 173
e 99 192
e 99 194
e 99 211
e 99 218
e 99 219
e 99 231
e 99 232
e 99 236
e 99 243
e 99 246
e 100 104
e 100 107
e 100 110
e 100 117
e 100 123
e 100 153
e 100 163
e 100 172
e 100 175
e 100 180
e 100 182
e 100 185
e 100 188
e 100 195
e 100 207
e 100 208
e 100 210
e 100 224
e 100 229
e 100 230
e 100 246
e 100 247
e 100 250
e 101 110
e 101 112
e 101 129
e 101 136
e 101 149
e 101 154
e 101 163
e 101 167
e 101 169
e 101 171
e 101 191
e 101 211
e 101 227
e 101 235
e 102 104
e 102 118
e 102 122
e 102 130
e 102 135
e 102 137
e 102 144
e 102 150
e 102 160
e 102 163
e 102 179
e 102 183
e 102 202
e 102 208
e 102 209
e 102 213
e 102 220
e 102 225
e 102 229
e 103 110
e 103 112
e 103 115
e 103 123
e 103 126
e 103 132
e 103 143
e 103 145
e 103 154
e 103 170
e 103 181
e 103 194
e 103 196
e 103 197
e 103 205
e 103 215
e 103 221
e 103 231
e 104 113
e 104 117
e 104 120
e 104 125
e 104 130
e 104 133
e 104 140
e 104 142
e 104 160
e 104 161
e 104 165
e 104 166
e 104 170
e 104 178
e 104 182
e 104 187
e 104 197
e 104 213
e 104 220
e 104 229
e 104 246
e 105 110
e 105 119
e 105 131
e 105 176
e 105 189
e 105 192
e 105 198
e 105 212
e 105 231
e 105 234
e 105 240
e 106 120
e 106 139
e 106 142
e 106 164
e 106 170
e 106 172
e 106 192
e 106 193
e 106 212
e 106 231
e 106 235
e 106 243
e 107 122
e 107 135
e 107 142
e 107 177
e 107 189
e 107 209
e 107 242
e 107 247
e 108 109
e 108 116
e 108 118
e 108 125
e 108 130
e 108 140
e 108 154
e 108 165
e 108 169
e 108 205
e 108 226
e 108 227
e 108 236
e 108 237
e 108 243
e 108 249
e 109 114
e 109 115
e 109 135
e 109 168
e 109 185
e 109 199
e 109 229
e 109 235
e 109 246
e 110 111
e 110 163
e 110 174
e 110 191
e 110 200
e 110 203
e 110 204
e 110 214
e 110 229
e 110 234
e 110 236
e 110 249
e 111 133
e 111 135
e 111 136
e 111 169
e 111 176
e 111 177
e 111 184
e 111 190
e 111 196
e 111 200
e 111 201
e 111 204
e 111 220
e 111 223
e 111 230
e 111 239
e 111 243
e 111 245
e 111 246
e 112 125
e 112 132
e 112 138
e 112 141
e 112 146
e 112 175
e 112 177
e 112 183
e 112 184
e 112 190
e 112 226
e 112 231
e 112 234
e 113 123
e 113 141
e 113 143
e 113 155
e 113 162
e 113 165
e 113 173
e 113 200
e 113 212
e 113 214
e 113 217
e 113 237
e 113 243
e 113 248
e 113 249
e 114 148
e 114 154
e 114 156
e 114 158
e 114 167
e 114 173
e 114 178
e 114 179
e 114 180
e 114 184
e 114 200
e 114 209
e 114 237
e 114 240
e 115 122
e 115 128
e 115 134
e 115 145
e 115 149
e 115 150
e 115 153
e 115 160
e 115 166
e 115 173
e 115 175
e 115 236
e 115 238
e 115 244
e 115 249
e 116 118
e 116 122
e 116 127
e 116 134
e 116 137
e 116 148
e 116 151
e 116 179
e 116 181
e 116 183
e 116 193
e 116 204
e 116 207
e 116 215
e 116 225
e 116 238
e 116 241
e 116 250
e 117 123
e 117 128
e 117 133
e 117 137
e 117 141
e 117 142
e 117 151
e 117 172
e 117 178
e 117 179
e 117 184
e 117 196
e 117 206
e 117 208
e 117 232
e 117 240
e 117 241
e 117 242
e 118 135
e 118 139
e 118 140
e 118 141
e 118 176
e 118 179
e 118 181
e 118 185
e 118 196
e 118 219
e 118 227
e 119 125
e 119 126
e 119 143
e 119 172
e 119 181
e 119 186
e 119 192
e 119 196
e 119 216
e 119 224
e 119 228
e 120 134
e 120 143
e 120 157
e 120 164
e 120 173
e 120 184
e 120 204
e 120 214
e 120 219
e 121 127
e 121 147
e 121 158
e 121 165
e 121 169
e 121 171
e 121 180
e 121 181
e 121 190
e 121 192
e 121 197
e 121 198
e 121 203
e 121 204
e 121 209
e 121 215
e 121 219
e 121 230
e 121 246
e 122 130
e 122 142
e 122 149
e 122 160
e 122 165
e 122 171
e 122 192
e 122 208
e 122 213
e 122 237
e 123 164
e 123 166
e 123 180
e 123 190
e 123 194
e 123 205
e 123 209
e 123 215
e 123 233
e 123 240
e 124 125
e 124 145
e 124 147
e 124 152
e 124 157
e 124 192
e 124 215
e 124 216
e 124 232
e 124 246
e 125 148
e 125 154
e 125 160
e 125 171
e 125 182
e 125 190
e 125 222
e 125 232
e 126 127
e 126 137
e 126 150
e 126 178
e 126 195
e 126 197
e 126 236
e 127 147
e 127 174
e 127 176
e 127 185
e 127 186
e 127 197
e 127 219
e 127 230
e 128 174
e 128 176
e 128 184
e 129 151
e 129 161
e 129 181
e 129 200
e 129 203
e 129 208
e 129 212
e 129 225
e 129 233
e 129 237
e 129 245
e 129 247
e 129 249
e 129 250
e 130 132
e 130 133
e 130 146
e 130 150
e 130 151
e 130 162
e 130 186
e 130 188
e 130 189
e 130 191
e 130 203
e 130 205
e 130 207
e 130 210
e 130 212
e 130 223
e 130 230
e 130 243
e 131 134
e 131 136
e 131 145
e 131 148
e 131 156
e 131 178
e 131 192
e 131 196
e 131 198
e 131 209
e 131 212
e 131 226
e 131 245
e 132 156
e 132 174
e 132 178
e 132 180
e 132 200
e 132 205
e 132 212
e 132 218
e 132 223
e 132 227
e 132 235
e 132 246
e 133 136
e 133 137
e 133 151
e 133 162
e 133 164
e 133 172
e 133 173
e 133 177
e 133 194
e 133 198
e 133 200
e 133 207
e 133 210
e 133 225
e 133 244
e 133 248
e 134 155
e 134 159
e 134 164
e 134 167
e 134 168
e 134 169
e 134 172
e 134 174
e 134 197
e 134 204
e 134 223
e 134 224
e 135 154
e 135 160
e 135 169
e 135 173
e 135 178
e 135 208
e 135 216
e 135 225
e 135 241
e 135 248
e 136 145
e 136 147
e 136 162
e 136 185
e 136 208
e 136 220
e 136 233
e 136 245
e 136 248
e 137 144
e 137 158
e 137 170
e 137 182
e 137 187
e 137 207
e 137 214
e 137 246
e 138 140
e 138 141
e 138 143
e 138 144
e 138 156
e 138 158
e 138 169
e 138 173
e 138 176
e 138 181
e 138 182
e 138 186
e 138 195
e 138 207
e 138 226
e 138 230
e 138 234
e 139 143
e 139 168
e 139 175
e 139 192
e 139 193
e 139 197
e 139 210
e 139 213
e 139 214
e 139 243
e 140 141
e 140 156
e 140 167
e 140 174
e 140 179
e 140 181
e 140 197
e 140 218
e 140 236
e 140 240
e 140 248
e 141 148
e 141 167
e 141 168
e 141 180
e 141 183
e 141 186
e 141 196
e 141 241
e 141 243
e 141 245
e 141 247
e 142 156
e 142 166
e 142 168
e 142 221
e 142 222
e 142 238
e 142 242
e 143 152
e 143 161
e 143 169
e 143 197
e 143 203
e 143 209
e 143 230
e 143 231
e 143 236
e 143 237
e 143 241
e 143 246
e 144 146
e 144 151
e 144 152
e 144 170
e 144 175
e 144 176
e 144 183
e 144 200
e 144 220
e 144 227
e 144 228
e 144 232
e 144 242
e 144 249
e 145 147
e 145 160
e 145 169
e 145 174
e 145 189
e 145 206
e 145 207
e 145 211
e 145 216
e 145 222
e 145 226
e 145 240
e 145 245
e 146 154
e 146 162
e 146 200
e 146 216
e 146 221
e 146 224
e 146 235
e 146 244
e 146 246
e 147 156
e 147 161
e 147 175
e 147 179
e 147 182
e 147 189
e 147 194
e 147 201
e 147 212
e 147 216
e 147 221
e 147 223
e 147 226
e 147 227
e 147 232
e 148 178
e 148 180
e 148 186
e 148 203
e 148 216
e 148 217
e 148 226
e 148 245
e 148 247
e 149 157
e 149 159
e 149 210
e 149 217
e 149 233
e 149 247
e 149 248
e 150 166
e 150 180
e 150 201
e 150 207
e 150 226
e 150 231
e 150 236
e 150 250
e 151 154
e 151 174
e 151 175
e 151 196
e 151 198
e 151 204
e 151 207
e 151 220
e 151 244
e 151 246
e 152 156
e 152 160
e 152 162
e 152 163
e 152 166
e 152 184
e 152 222
e 152 224
e 152 229
e 153 155
e 153 170
e 153 174
e 153 192
e 153 194
e 153 203
e 153 208
e 153 211
e 153 229
e 153 248
e 154 159
e 154 167
e 154 190
e 154 198
e 154 211
e 154 213
e 154 216
e 154 222
e 154 227
e 154 234
e 154 235
e 154 248
e 155 165
e 155 174
e 155 180
e 155 203
e 155 216
e 155 236
e 155 240
e 155 242
e 156 158
e 156 165
e 156 188
e 156 198
e 156 208
e 156 211
e 156 221
e 156 228
e 156 230
e 156 240
e 156 245
e 156 250
e 157 161
e 157 168
e 157 197
e 157 198
e 157 202
e 157 205
e 157 206
e 157 211
e 157 220
e 157 222
e 157 225
e 157 232
e 157 236
e 157 244
e 157 249
e 158 160
e 158 167
e 158 193
e 158 200
e 158 209
e 158 221
e 158 236
e 158 239
e 158 248
e 159 175
e 159 194
e 159 207
e 159 221
e 159 228
e 159 231
e 159 245
e 159 250
e 160 165
e 160 185
e 160 190
e 160 199
e 160 202
e 160 204
e 160 207
e 160 230
e 160 239
e 161 168
e 161 178
e 161 183
e 161 216
e 161 232
e 161 239
e 162 164
e 162 179
e 162 184
e 162 192
e 162 199
e 162 211
e 162 215
e 162 225
e 162 234
e 162 239
e 162 242
e 162 247
e 163 164
e 163 200
e 163 205
e 163 211
e 163 220
e 163 222
e 163 235
e 163 239
e 163 246
e 163 248
e 164 171
e 164 183
e 164 187
e 164 195
e 164 198
e 164 203
e 164 206
e 164 238
e 164 242
e 164 244
e 165 174
e 165 210
e 165 217
e 165 220
e 165 224
e 165 226
e 165 233
e 166 180
e 166 185
e 166 188
e 166 192
e 166 201
e 166 208
e 166 209
e 166 216
e 166 218
e 166 223
e 166 225
e 166 233
e 166 238
e 167 171
e 167 177
e 167 187
e 167 199
e 167 216
e 167 238
e 168 177
e 168 191
e 168 208
e 168 224
e 168 240
e 169 177
e 169 201
e 169 206
e 169 210
e 169 215
e 169 220
e 169 224
e 169 235
e 169 237
e 169 245
e 169 246
e 170 182
e 170 194
e 170 208
e 170 216
e 170 219
e 170 230
e 170 237
e 170 240
e 171 188
e 171 194
e 171 209
e 171 215
e 171 222
e 171 239
e 171 248
e 172 179
e 172 182
e 172 228
e 172 229
e 172 250
e 173 181
e 173 186
e 173 198
e 173 209
e 173 215
e 173 225
e 173 231
e 173 235
e 173 243
e 174 182
e 174 195
e 174 242
e 175 207
e 175 222
e 175 238
e 176 185
e 176 188
e 176 216
e 176 230
e 176 234
e 176 247
e 177 178
e 177 181
e 177 201
e 177 205
e 177 208
e 177 210
e 177 245
e 178 186
e 178 196
e 178 215
e 178 222
e 178 248
e 179 198
e 179 220
e 179 222
e 179 225
e 179 243
e 179 250
e 180 189
e 180 191
e 180 196
e 180 209
e 180 212
e 180 227
e 180 228
e 180 250
e 181 198
e 181 229
e 182 194
e 182 208
e 182 209
e 182 214
e 182 220
e 182 226
e 182 230
e 182 231
e 183 188
e 183 189
e 183 192
e 183 194
e 183 199
e 183 202
e 183 208
e 183 211
e 183 212
e 183 215
e 183 216
e 183 245
e 184 195
e 184 196
e 184 217
e 184 239
e 184 242
e 185 197
e 185 202
e 185 213
e 185 225
e 185 232
e 185 235
e 185 236
e 185 244
e 186 187
e 186 193
e 186 204
e 186 209
e 186 234
e 187 190
e 187 192
e 187 196
e 187 204
e 187 205
e 187 217
e 187 238
e 187 244
e 188 194
e 188 206
e 188 209
e 188 210
e 188 213
e 188 221
e 188 231
e 188 233
e 188 234
e 188 244
e 188 247
e 189 198
e 189 209
e 189 222
e 189 223
e 189 236
e 190 200
e 190 206
e 190 209
e 190 219
e 190 228
e 190 230
e 190 239
e 190 244
e 191 194
e 191 216
e 191 222
e 191 226
e 191 230
e 192 204
e 192 207
e 192 231
e 192 247
e 192 248
e 193 198
e 193 200
e 193 208
e 193 239
e 193 243
e 194 200
e 194 232
e 194 249
e 195 198
e 195 203
e 195 209
e 195 210
e 195 212
e 195 216
e 195 224
e 195 225
e 195 229
e 196 197
e 196 199
e 196 209
e 196 211
e 196 236
e 196 240
e 196 241
e 196 244
e 196 247
e 196 248
e 197 221
e 197 229
e 197 249
e 198 203
e 198 218
e 198 225
e 198 227
e 198 229
e 198 232
e 198 242
e 199 205
e 199 206
e 199 214
e 199 237
e 199 247
e 199 249
e 199 250
e 200 201
e 200 217
e 200 244
e 200 246
e 201 210
e 201 216
e 201 217
e 201 234
e 201 235
e 201 239
e 202 211
e 202 212
e 202 235
e 203 222
e 203 223
e 203 228
e 203 235
e 203 237
e 203 243
e 203 247
e 204 205
e 204 208
e 204 232
e 205 209
e 205 214
e 205 220
e 205 243
e 205 248
e 206 215
e 206 220
e 206 236
e 206 248
e 207 212
e 207 215
e 207 223
e 207 229
e 208 227
e 208 232
e 208 238
e 208 239
e 208 242
e 208 245
e 209 223
e 209 239
e 209 243
e 209 246
e 210 211
e 210 227
e 210 234
e 210 245
e 211 237
e 211 239
e 212 214
e 212 221
e 212 223
e 212 241
e 213 214
e 213 215
e 213 217
e 213 221
e 213 223
e 213 230
e 213 245
e 214 217
e 214 226
e 214 246
e 215 230
e 215 233
e 215 235
e 215 242
e 215 247
e 216 222
e 216 231
e 216 232
e 216 242
e 216 247
e 217 245
e 218 249
e 219 220
e 219 225
e 219 236
e 219 247
e 220 245
e 221 248
e 223 241
e 224 225
e 224 228
e 224 242
e 225 234
e 225 247
e 226 231
e 226 236
e 226 241
e 226 245
e 227 232
e 227 238
e 227 250
e 228 235
e 228 249
e 230 240
e 231 232
e 231 234
e 232 234
e 232 240
e 233 234
e 233 235
e 233 239
e 233 242
e 233 250
e 234 249
e 235 238
e 235 243
e 236 245
e 236 246
e 239 242
e 239 244
e 239 249
e 241 250
e 242 245
e 244 248
e 246 247
e 246 249
e 248 250
